c width = 2, time = 0.000138
s td 47 3 49
b 1 17 28 43
b 2 17 28 49
b 3 17 49 3
b 4 17 3 4
b 5 17 4 5
b 6 17 5 6
b 7 17 6 7
b 8 17 7 8
b 9 17 8 9
b 10 17 9 10
b 11 17 10 11
b 12 17 11 12
b 13 17 12 14
b 14 17 14 15
b 15 17 15 16
b 16 28 49 23
b 17 28 23 25
b 18 28 25 26
b 19 28 26 27
b 20 43 17 18
b 21 43 28 29
b 22 43 28 30
b 23 43 30 31
b 24 43 31 32
b 25 43 32 33
b 26 43 33 34
b 27 43 34 36
b 28 43 36 37
b 29 43 37 38
b 30 43 38 39
b 31 43 39 40
b 32 43 40 41
b 33 43 41 42
b 34 49 17 19
b 35 49 19 20
b 36 49 20 21
b 37 49 21 22
b 38 49 22 46
b 39 49 46 47
b 40 49 47 48
b 41 43 44
b 42 46 45
b 43 45 35
b 44 35 24
b 45 24 13
b 46 13 2
b 47 2 1
1 2
2 3
3 4
4 5
5 6
6 7
7 8
8 9
9 10
10 11
11 12
12 13
13 14
14 15
2 16
16 17
17 18
18 19
1 20
1 21
1 22
22 23
23 24
24 25
25 26
26 27
27 28
28 29
29 30
30 31
31 32
32 33
2 34
34 35
35 36
36 37
37 38
38 39
39 40
1 41
38 42
42 43
43 44
44 45
45 46
46 47
